(define-funs-rec
  ((u5
    ((x Int) (y Int) (z Int)) Int)
   (v5
    ((x Int) (y Int) (z Int)) Int))
  ((ite (<= x 0) y (+ (u5 (- x 1) y z) (v5 (- x 1) y z)))
   (ite (<= x 0) z (u5 (- x 1) y z))))
(define-funs-rec
  ((u4
    ((x Int) (y Int) (z Int)) Int)
   (v4
    ((x Int) (y Int) (z Int)) Int))
  ((ite (<= x 0) y (+ (u4 (- x 1) y z) (v4 (- x 1) y z)))
   (ite (<= x 0) z (u4 (- x 1) y z))))
(define-fun
  w4
  ((x Int)) Int (u4 x 1 1))
(define-funs-rec
  ((u2
    ((x Int) (y Int) (z Int)) Int)
   (v2
    ((x Int) (y Int) (z Int)) Int))
  ((ite (<= x 0) y (+ (u2 (- x 1) y z) (v2 (- x 1) y z)))
   (ite (<= x 0) z (u2 (- x 1) y z))))
(define-fun
  w2
  ((x Int)) Int (u2 x 1 0))
(define-funs-rec
  ((u1
    ((x Int) (y Int) (z Int)) Int)
   (v1
    ((x Int) (y Int) (z Int)) Int))
  ((ite (<= x 0) y (+ (u1 (- x 1) y z) (v1 (- x 1) y z)))
   (ite (<= x 0) z (u1 (- x 1) y z))))
(define-fun
  w1
  ((x Int)) Int (u1 x 1 1))
(define-fun
  h5
  ((x Int)) Int (- x 1))
(define-fun
  w5
  ((x Int)) Int (u5 (h5 x) 1 1))
(define-fun
  h4
  ((x Int)) Int x)
(define-fun
  h2
  ((x Int)) Int x)
(define-fun
  h1
  ((x Int)) Int x)
(define-fun
  g5
  ((x Int)) Int x)
(define-fun
  g4
  ((x Int)) Int x)
(define-fun
  g2
  ((x Int)) Int x)
(define-fun
  g1
  ((x Int)) Int x)
(define-fun
  f3
  ((x Int)) Int (* x x))
(define-fun-rec
  u3
  ((x Int) (y Int)) Int (ite (<= x 0) y (f3 (u3 (- x 1) y))))
(define-fun
  v3
  ((x Int)) Int (u3 1 (w4 x)))
(define-fun
  fast
  ((x Int)) Int (* (v3 x) (w5 x)))
(define-fun
  f0
  ((x Int)) Int (* x x))
(define-fun-rec
  u0
  ((x Int) (y Int)) Int (ite (<= x 0) y (f0 (u0 (- x 1) y))))
(define-fun
  v0
  ((x Int)) Int (u0 1 (w1 x)))
(define-fun
  small
  ((x Int)) Int (* (v0 x) (w2 x)))
(assert-not
  (forall ((c Int)) (or (not (>= c 0)) (= (small c) (fast c)))))
